c turning on binary mode checking
c parsing input formula with 2139 variables and 9000 clauses
c finished parsing, read 51202604 bytes from proof file
c detected empty clause; start verification via backward checking
c 7180 of 9000 clauses in core                            
c 575518 of 739536 lemmas in core using 18552913 resolution steps
c 0 RAT lemmas in core; 319117 redundant literals in core lemmas
s VERIFIED
c verification time: 136.544 seconds
